\ LP format - for model browsing. Use MPS format to capture full model detail.
Minimize
  q_2^1 + 10 B_1^1 + theta_3^1 - 50 Constant
Subject To
 R0: theta_3^1 >= 0
 R1: I_1^1 - B_1^1 = 8
 R2: 10 q_2^1 + 10 I_1^1 - 10 B_1^1 + theta_3^1 >= 100
 R3: 10 q_2^1 + 10 I_1^1 - 10 B_1^1 + theta_3^1 >= 100
 R4: 10 q_2^1 + 10 I_1^1 - 10 B_1^1 + theta_3^1 >= 100
 R5: 10 q_2^1 + 10 I_1^1 - 10 B_1^1 + theta_3^1 >= 100
 R6: 4 q_2^1 + 4 I_1^1 - 4 B_1^1 + theta_3^1 >= 52
 R7: 4 q_2^1 + 4 I_1^1 - 4 B_1^1 + theta_3^1 >= 52
 R8: 2 q_2^1 + 2 I_1^1 - 2 B_1^1 + theta_3^1 >= 29
 R9: theta_3^1 >= 0
Bounds
 Constant = 1
End
